c Command line: hgen8 170 10
p cnf 170 265
76 138 112 22 0
42 34 8 38 0
133 74 26 54 0
94 130 143 7 0
21 120 65 110 0
23 117 53 16 0
88 17 107 127 0
165 146 96 77 0
59 111 15 61 0
151 145 12 30 0
153 154 64 139 0
126 46 85 27 0
63 152 141 24 0
6 11 79 108 0
82 51 167 95 0
113 98 162 169 0
55 160 87 19 0
13 36 149 43 0
68 18 4 73 0
150 164 102 67 0
47 78 90 119 0
168 40 136 29 0
81 101 142 41 0
72 66 9 123 0
118 157 71 158 0
105 70 140 48 0
163 28 20 33 0
80 104 5 49 0
57 135 56 128 0
62 50 115 31 0
3 137 75 97 0
39 103 44 144 0
134 155 1 25 0
93 10 116 89 0
106 83 60 122 0
-1 -3 0
-1 -4 0
-1 -5 0
-3 -4 0
-3 -5 0
-4 -5 0
-6 -7 0
-6 -8 0
-6 -9 0
-6 -10 0
-7 -8 0
-7 -9 0
-7 -10 0
-8 -9 0
-8 -10 0
-9 -10 0
-11 -12 0
-11 -13 0
-11 -15 0
-12 -13 0
-12 -15 0
-13 -15 0
-16 -17 0
-16 -18 0
-16 -19 0
-16 -20 0
-17 -18 0
-17 -19 0
-17 -20 0
-18 -19 0
-18 -20 0
-19 -20 0
-21 -22 0
-21 -23 0
-21 -24 0
-21 -25 0
-22 -23 0
-22 -24 0
-22 -25 0
-23 -24 0
-23 -25 0
-24 -25 0
-26 -27 0
-26 -28 0
-26 -29 0
-26 -30 0
-27 -28 0
-27 -29 0
-27 -30 0
-28 -29 0
-28 -30 0
-29 -30 0
-31 -33 0
-31 -34 0
-33 -34 0
-36 -38 0
-36 -39 0
-36 -40 0
-38 -39 0
-38 -40 0
-39 -40 0
-41 -42 0
-41 -43 0
-41 -44 0
-42 -43 0
-42 -44 0
-43 -44 0
-46 -47 0
-46 -48 0
-46 -49 0
-46 -50 0
-47 -48 0
-47 -49 0
-47 -50 0
-48 -49 0
-48 -50 0
-49 -50 0
-51 -53 0
-51 -54 0
-51 -55 0
-53 -54 0
-53 -55 0
-54 -55 0
-56 -57 0
-56 -59 0
-56 -60 0
-57 -59 0
-57 -60 0
-59 -60 0
-61 -62 0
-61 -63 0
-61 -64 0
-61 -65 0
-62 -63 0
-62 -64 0
-62 -65 0
-63 -64 0
-63 -65 0
-64 -65 0
-66 -67 0
-66 -68 0
-66 -70 0
-67 -68 0
-67 -70 0
-68 -70 0
-71 -72 0
-71 -73 0
-71 -74 0
-71 -75 0
-72 -73 0
-72 -74 0
-72 -75 0
-73 -74 0
-73 -75 0
-74 -75 0
-76 -77 0
-76 -78 0
-76 -79 0
-76 -80 0
-77 -78 0
-77 -79 0
-77 -80 0
-78 -79 0
-78 -80 0
-79 -80 0
-81 -82 0
-81 -83 0
-81 -85 0
-82 -83 0
-82 -85 0
-83 -85 0
-87 -88 0
-87 -89 0
-87 -90 0
-88 -89 0
-88 -90 0
-89 -90 0
-93 -94 0
-93 -95 0
-94 -95 0
-96 -97 0
-96 -98 0
-97 -98 0
-101 -102 0
-101 -103 0
-101 -104 0
-101 -105 0
-102 -103 0
-102 -104 0
-102 -105 0
-103 -104 0
-103 -105 0
-104 -105 0
-106 -107 0
-106 -108 0
-106 -110 0
-107 -108 0
-107 -110 0
-108 -110 0
-111 -112 0
-111 -113 0
-111 -115 0
-112 -113 0
-112 -115 0
-113 -115 0
-116 -117 0
-116 -118 0
-116 -119 0
-116 -120 0
-117 -118 0
-117 -119 0
-117 -120 0
-118 -119 0
-118 -120 0
-119 -120 0
-122 -123 0
-126 -127 0
-126 -128 0
-126 -130 0
-127 -128 0
-127 -130 0
-128 -130 0
-133 -134 0
-133 -135 0
-134 -135 0
-136 -137 0
-136 -138 0
-136 -139 0
-136 -140 0
-137 -138 0
-137 -139 0
-137 -140 0
-138 -139 0
-138 -140 0
-139 -140 0
-141 -142 0
-141 -143 0
-141 -144 0
-141 -145 0
-142 -143 0
-142 -144 0
-142 -145 0
-143 -144 0
-143 -145 0
-144 -145 0
-146 -149 0
-146 -150 0
-149 -150 0
-151 -152 0
-151 -153 0
-151 -154 0
-151 -155 0
-152 -153 0
-152 -154 0
-152 -155 0
-153 -154 0
-153 -155 0
-154 -155 0
-157 -158 0
-157 -160 0
-158 -160 0
-162 -163 0
-162 -164 0
-162 -165 0
-163 -164 0
-163 -165 0
-164 -165 0
-167 -168 0
-167 -169 0
-168 -169 0
